
List of user-set options:

                                    Name   Value                used
                           compl_inf_tol = 1                     yes
                         constr_viol_tol = 1                     yes
                            dual_inf_tol = 1000                  yes
                           linear_solver = ma97                  yes
                              ma86_small = 1e-30                  no
                                  ma86_u = 0.0001                 no
                              ma97_order = best                  yes
                              ma97_small = 1e-30                 yes
                            ma97_switch1 = at_start              yes
                            ma97_switch2 = od_hd_reuse           yes
                                  ma97_u = 1e-06                 yes
                               ma97_umax = 0.5                   yes
                                max_iter = 1000                  yes
                    max_refinement_steps = 20                    yes
                    min_refinement_steps = 5                     yes
                                 mu_init = 1e-06                 yes
           mu_superlinear_decrease_power = 1.25                  yes
                   nlp_scaling_min_value = 1e-08                 yes
                        option_file_name = Preset_Case_858_pf.opt  yes
                             output_file = ./tmp/Preset_Case_858_pf.output  yes
                      print_user_options = yes                   yes
        required_infeasibility_reduction = 1                      no
                                     tol = 1e-08                 yes
                   warm_start_bound_frac = 1e-20                 yes
                   warm_start_bound_push = 1e-20                 yes
                   warm_start_init_point = yes                   yes
              warm_start_mult_bound_push = 1e-20                 yes
                warm_start_mult_init_max = 1e+40                 yes
             warm_start_slack_bound_frac = 1e-20                 yes
             warm_start_slack_bound_push = 1e-20                 yes

******************************************************************************
This program contains Ipopt, a library for large-scale nonlinear optimization.
 Ipopt is released as open source code under the Eclipse Public License (EPL).
         For more information visit http://projects.coin-or.org/Ipopt
******************************************************************************

This is Ipopt version 3.12.10, running with linear solver ma97.

Number of nonzeros in equality constraint Jacobian...:   123442
Number of nonzeros in inequality constraint Jacobian.:      213
Number of nonzeros in Lagrangian Hessian.............:    49069

Total number of variables............................:    31591
                     variables with only lower bounds:    12912
                variables with lower and upper bounds:    15130
                     variables with only upper bounds:        0
Total number of equality constraints.................:    31483
Total number of inequality constraints...............:       25
        inequality constraints with only lower bounds:        4
   inequality constraints with lower and upper bounds:        0
        inequality constraints with only upper bounds:       21

iter    objective    inf_pr   inf_du lg(mu)  ||d||  lg(rg) alpha_du alpha_pr  ls
   0 -5.2602761e+00 4.38e-03 1.02e+00  -6.0 0.00e+00    -  0.00e+00 0.00e+00   0
   1 -5.2598138e+00 1.21e-01 1.89e+00  -6.0 4.52e+05    -  6.95e-05 1.13e-04h  4
   2 -5.2609807e+00 1.21e-01 3.83e+01  -6.0 3.44e+03    -  1.68e-01 1.23e-03h  1
   3 -5.4294554e+00 6.45e+00 4.21e+02  -6.0 3.44e+03    -  1.19e-01 1.78e-01f  1
   4 -5.5138331e+00 1.29e+01 5.67e+02  -6.0 3.67e+03    -  3.61e-01 1.84e-01h  1
   5 -5.6325176e+00 1.23e+01 7.54e+04  -6.0 1.47e+03    -  3.92e-01 3.14e-01h  1
   6 -5.6157874e+00 3.22e-02 1.54e+05  -6.0 8.91e+00  -4.0 4.10e-01 1.00e+00h  1
   7 -5.6206227e+00 1.11e-02 3.93e+05  -6.0 1.10e+01  -4.5 5.69e-02 1.00e+00h  1
   8 -5.7101888e+00 2.18e+00 1.73e+05  -6.0 4.12e+01  -5.0 2.31e-01 6.73e-01h  1
   9 -5.7150953e+00 1.58e+00 7.30e+04  -6.0 4.40e+01  -5.4 4.11e-01 2.91e-01h  1
iter    objective    inf_pr   inf_du lg(mu)  ||d||  lg(rg) alpha_du alpha_pr  ls
  10 -5.7354599e+00 7.72e-01 8.24e+04  -6.0 1.13e+02  -5.9 7.00e-05 5.97e-01h  1
  11 -5.7400577e+00 4.71e-01 5.20e+04  -6.0 3.78e+02  -6.4 3.01e-01 5.28e-01H  1
  12 -5.7483742e+00 7.84e-02 3.02e+03  -6.0 1.94e+01  -5.1 9.17e-01 1.00e+00h  1
  13 -5.7673544e+00 6.61e-02 8.96e+02  -6.0 5.25e+01  -5.5 7.07e-01 5.59e-01h  1
  14 -5.7851141e+00 6.92e-02 1.25e+03  -6.0 1.15e+02  -6.0 9.63e-01 4.90e-01h  1
  15 -5.8359737e+00 6.10e-01 5.36e+01  -6.0 1.80e+02  -6.5 5.60e-01 1.00e+00h  1
  16 -5.8607187e+00 3.25e-01 6.79e+01  -6.0 1.31e+02  -7.0 5.19e-01 8.86e-01h  1
  17 -5.8578283e+00 7.76e-01 6.54e+01  -6.0 6.34e+01  -6.5 7.48e-01 1.00e+00h  1
  18 -5.8735172e+00 7.21e-01 2.53e+03  -6.0 2.11e+02  -7.0 1.18e-01 1.00e+00h  1
  19 -5.8804137e+00 5.54e-01 1.45e+01  -6.0 7.41e+01  -6.6 5.68e-01 1.00e+00h  1
iter    objective    inf_pr   inf_du lg(mu)  ||d||  lg(rg) alpha_du alpha_pr  ls
  20 -5.8927168e+00 1.25e+00 4.51e+01  -6.0 2.05e+02  -7.1 8.64e-01 1.00e+00h  1
  21 -5.8961624e+00 5.12e-02 3.47e+00  -6.0 7.03e+01  -6.6 1.00e+00 1.00e+00h  1
  22 -5.9070589e+00 6.53e-01 2.85e+01  -6.0 1.68e+02  -7.1 1.00e+00 1.00e+00h  1
  23 -5.9130192e+00 1.20e+00 2.70e+01  -6.0 1.92e+03  -7.6 1.08e-01 7.42e-02h  1
  24 -5.9220979e+00 1.52e+00 3.16e+01  -6.0 1.61e+02  -7.2 1.00e+00 1.00e+00h  1
  25 -5.9309033e+00 1.49e+00 1.51e+03  -6.0 1.23e+04  -7.6 1.79e-02 1.71e-02h  1
  26 -5.9558056e+00 6.92e+00 2.54e+03  -6.0 2.38e+05    -  1.53e-03 5.30e-03h  1
  27 -5.9670669e+00 7.83e+00 1.96e+04  -6.0 1.36e+04    -  1.21e-01 3.50e-02h  1
  28 -5.9805371e+00 8.93e+00 3.44e+04  -6.0 1.16e+04    -  1.25e-01 4.37e-02h  1
  29 -5.9945475e+00 1.98e+01 3.56e+04  -6.0 9.31e+03    -  5.04e-02 3.73e-02h  1
iter    objective    inf_pr   inf_du lg(mu)  ||d||  lg(rg) alpha_du alpha_pr  ls
  30 -6.0091660e+00 1.60e+01 2.67e+04  -6.0 1.03e+03    -  2.02e-01 2.09e-01h  1
  31 -6.0458628e+00 1.10e+01 5.66e+04  -6.0 1.15e+03    -  2.79e-01 5.27e-01h  1
  32 -6.0601225e+00 4.60e+00 1.09e+05  -6.0 1.03e+03    -  7.40e-01 5.35e-01h  1
  33 -6.0642133e+00 3.57e+00 5.27e+05  -6.0 6.83e+02    -  4.82e-01 2.16e-01h  1
  34 -6.0642351e+00 3.36e+00 6.69e+05  -6.0 7.61e+02    -  4.85e-02 6.05e-02h  1
  35r-6.0642351e+00 3.36e+00 1.00e+03   0.0 0.00e+00    -  0.00e+00 8.72e-08R  2
  36r-6.2068033e+00 3.35e+00 1.07e+03   0.0 3.76e+04    -  9.06e-06 1.67e-06f  1
  37 -6.1975740e+00 3.14e+00 7.82e+04  -6.0 3.95e+01    -  1.38e-02 6.23e-02h  1
  38 -6.1727887e+00 2.65e+00 3.14e+04  -6.0 1.97e+01    -  6.23e-02 1.58e-01h  1
  39 -6.1635836e+00 2.40e+00 2.85e+04  -6.0 6.31e+00    -  2.23e-01 9.45e-02h  1
iter    objective    inf_pr   inf_du lg(mu)  ||d||  lg(rg) alpha_du alpha_pr  ls
  40 -6.1007394e+00 1.06e+00 1.24e+04  -6.0 5.12e+00    -  2.99e-01 5.63e-01h  1
  41 -6.0789284e+00 5.83e-01 6.85e+03  -6.0 2.23e+00    -  6.46e-01 4.49e-01h  1
  42 -6.0653470e+00 2.84e-01 3.32e+03  -6.0 1.39e+00    -  9.72e-01 5.16e-01h  1
  43 -6.0647716e+00 2.55e-01 2.97e+03  -6.0 8.99e+00    -  9.12e-01 1.06e-01h  1
  44 -6.0546830e+00 1.69e-02 4.34e+01  -6.0 3.24e+01    -  9.76e-01 1.00e+00h  1
  45 -6.0556547e+00 1.86e-02 3.95e+01  -6.0 4.64e+02    -  8.34e-01 8.32e-02h  1
  46 -6.0593148e+00 1.17e-01 4.83e+01  -6.0 4.54e+02    -  8.85e-01 4.28e-01h  2
  47 -6.0591010e+00 5.53e-02 4.74e+01  -6.0 2.86e+02    -  9.96e-01 1.00e+00H  1
  48 -6.0594974e+00 9.35e-02 1.45e+00  -6.0 4.75e+01    -  1.00e+00 1.00e+00h  1
  49 -6.0595971e+00 1.60e-03 3.13e-02  -6.0 6.14e+00    -  1.00e+00 1.00e+00h  1
iter    objective    inf_pr   inf_du lg(mu)  ||d||  lg(rg) alpha_du alpha_pr  ls
  50 -6.0598558e+00 1.37e-05 2.74e-01  -6.0 5.77e-01    -  1.00e+00 1.00e+00h  1
  51 -6.0598560e+00 6.79e-09 9.60e-05  -6.0 1.29e-02    -  1.00e+00 1.00e+00h  1
  52 -6.0598560e+00 2.88e-10 1.71e-11  -6.0 1.14e-05    -  1.00e+00 1.00e+00h  1
  53 -6.0599238e+00 2.74e-03 4.97e+01  -7.5 3.73e+01    -  9.57e-01 7.85e-01h  1
  54 -6.0599279e+00 5.47e-04 8.91e+00  -7.5 8.27e+00    -  1.00e+00 8.57e-01h  1
  55 -6.0599278e+00 4.19e-06 6.54e-03  -7.5 1.18e+00    -  1.00e+00 1.00e+00h  1
  56 -6.0599278e+00 2.85e-10 3.93e-10  -7.5 2.23e-04    -  1.00e+00 1.00e+00h  1
  57 -6.0599293e+00 3.23e-06 7.03e-01  -9.0 1.20e+00    -  9.23e-01 8.46e-01h  1
  58 -6.0599296e+00 1.06e-07 1.68e-04  -9.0 1.84e-01    -  1.00e+00 1.00e+00f  1
  59 -6.0599296e+00 2.85e-10 2.96e-09  -9.0 4.56e-05    -  1.00e+00 1.00e+00h  1

Number of Iterations....: 59

                                   (scaled)                 (unscaled)
Objective...............:  -4.7343199933498594e+00   -6.0599295914878200e+00
Dual infeasibility......:   2.9597140816404132e-09    3.7884340244997290e-09
Constraint violation....:   2.8507074218558914e-10    2.8507074218558914e-10
Complementarity.........:   1.1644701451829793e-09    1.4905217858342134e-09
Overall NLP error.......:   2.9597140816404132e-09    3.7884340244997290e-09


Number of objective function evaluations             = 70
Number of objective gradient evaluations             = 60
Number of equality constraint evaluations            = 70
Number of inequality constraint evaluations          = 70
Number of equality constraint Jacobian evaluations   = 61
Number of inequality constraint Jacobian evaluations = 61
Number of Lagrangian Hessian evaluations             = 59
Total CPU secs in IPOPT (w/o function evaluations)   =    123.374
Total CPU secs in NLP function evaluations           =      2.114

EXIT: Optimal Solution Found.
